NAME : PR75B.128397.tour
COMMENT : Cost = 0_128397
COMMENT : Found by LKH [Keld Helsgaun] Sun Sep 17 16:52:40 2017
TYPE : TOUR
DIMENSION : 75
TOUR_SECTION
1
22
4
6
8
7
3
5
30
29
25
26
43
47
67
69
66
49
48
51
50
65
64
55
54
58
59
60
61
72
71
70
63
62
56
57
40
39
33
32
31
34
38
37
35
36
18
17
11
12
13
14
73
15
16
9
10
19
28
27
42
41
53
52
68
46
44
45
23
24
20
21
2
74
75
-1
EOF
